
 102   30
  10   10   10   10   10   10   10   10   10   10   10   10   10   10   10   10   10   10   10   10   10   10   10   10   10   10   10   10   10   10

   0   0   0   0   0   0   0   0   0   0   0   0   0   0   0   0   0   0   0   0   0   0   0   0   0   0   0   0   0   0   0  25 2 3 4 5 6 7 8 9 10 11 13 14 15 16 18 19 21 22 23 24 25 29 32 48 49 
   3   0   0   0   0   0   0   0   0   0   1   0   0   0   0   0   0   0   0   1   0   0   0   1   0   0   0   1   0   0   0  19 76 73 70 69 68 60 59 58 52 46 45 40 39 36 35 34 30 27 20 
   6   0   0   0   0   0   0   1   0   0   0   0   1   0   0   0   0   0   0   0   0   0   0   8   0   0   0   5   0   0   0  11 74 70 58 52 45 39 37 31 30 27 12 
   7   0   0   0   0   0   0   0   0   0   0   0   0   0   0   0   1   0   0  10   0   4   0   0   0   0   0   0   0   0   0  13 75 70 69 53 52 46 45 44 42 36 33 31 26 
   8   0   1   0   0   0   4   0   0   0   0   0   0   0   0   0   0   0   0   5   0   0   0   0   0   0   0   0   0   0   1   7 75 52 43 39 37 27 12 
   8   3   0   0   0   1   0   0   0   0   0   0   0   0   0   0   0   0   0   0   0   0   0   0   0   0   4   0   0   1   0  15 100 76 75 74 73 72 69 68 65 60 47 45 35 28 27 
   8   0   0   0   0   0   0   0   2   0   0   0   0   0   0   0   0   1   0   0   0   0   0   0   0   0   0   0   0   0   0  17 101 100 89 76 72 70 69 68 63 60 53 52 50 44 39 37 35 
  10   0   0   0   0  10   0   0   7   4   0   0   0   0   0   0   6   8   0   0   0   0   0   0   0   0   0   0   0   0   5  11 100 74 73 70 66 50 46 43 42 31 17 
   5   0   0   0   0   0   0   0   0   0   0   0   0   0   0   0   0   0   0   0   0   0   0   0   0   0   0   0   0   0   0  13 76 74 73 68 54 53 51 50 45 43 42 36 31 
  10   0  10   0   0   0   0   6   0   0   0   0   0   0   0   0   0   0   0   0   0   0   0   0   0   0   0   0   0   0   4  16 97 92 76 74 73 71 69 68 67 66 58 52 50 43 38 31 
   8   0   0   0   0   0   0   0   0   0   0   0   0   0   0   1   9   0   0   0   0   0   0   0   0   0   0   0   0   0   8  15 76 74 73 70 68 67 66 65 60 59 52 50 42 36 27 
  10   0   0   0   0   0   0   0   0   0   0   0   0   0   0   0   0   0   0   6   0   0   0   8   0   0   0   0   0   0   0  13 101 100 95 88 73 69 68 65 60 50 47 35 28 
   4   0   0   0   0   0   0   9   0   0   0   0   0   0   0   0   0   0   0   0   2   0   0   0   1   0   0   0   1   8   0  14 101 100 96 74 73 69 68 67 65 60 59 57 42 27 
  10   0   0   0   0   7   0   0   0   0   0   0   0   1   0   0   0   0   0   0   6   0   0   0   0   0   0   0   0   0   0  14 100 99 98 96 76 74 73 68 67 64 62 57 46 28 
   8   0   0   0   0   0   0   0   0   0   0   0   0   0   0   0   0   0   0   0   0   0   0   0   0   0   0   0   0   0   0  14 101 99 98 96 94 92 64 58 57 54 50 42 41 37 
   2   3   8   0   1   0   0   0   0   0   9   0   7   3   0   0   0   0   0   0   0   4   0   0   0   0   0   7   0   0   0  19 99 98 96 95 94 93 92 90 88 87 75 72 68 67 66 64 50 43 42 
   1   6   0   5   0   0   0   0   0   0   0   2   0   0   2   0   0   0   0   0   0   0   0   0   5   0   0   0   9   0   0  19 98 97 95 93 91 87 72 68 67 65 63 61 60 58 57 56 55 54 47 
   6   0   0   4   0   0   0   3   0   0   0   3   0   0   0   0   0   0   0   7   0   7   0   0   0   1   5   0   0   0   0  17 99 96 94 92 87 86 75 74 73 72 67 64 57 56 54 43 42 
   3   0   0   0   0   0   0   0   0   0   0   0   0   0   0   0   0   0   0   0   0   0   0   0   0   0   0   0   0   0   0  15 100 96 95 92 75 68 67 65 64 60 59 57 54 45 42 
   1   0   0   0   0   0   0   0   0   0   0   0   0   0   0   0   0   3   1   0   0  10   0   0   0   0   2   0   0   0   6  15 100 99 95 93 92 88 87 72 67 65 62 57 56 47 42 
   1   6   0   0   0   0   0   0   0   0   0   0   0   0   7   0   0   0   0   8   0   4   0   0   0   0   0   0   0   6   0  16 98 96 95 94 93 89 88 75 72 67 65 62 61 59 57 45 
   7   0   0   0   0   0   0   0   0   3   0   0   0   0   0   0   0   0   0   0   0   0   0   0   0   0   0   0   6   0   0  14 99 97 88 87 70 66 65 63 62 61 58 57 47 46 
   3   0   6   0   0   0   0   8   0   0   0   6   0   0   0   0   0   0   0   0   0   0   0   0   0   0   0   0   0   0   0  13 100 99 92 91 90 87 73 72 65 63 52 50 47 
   9   0   3   0   0   0   0   0   0   0   0   5   0   0   0   0   0  10   0   0   0   0   1   0   0   0   0   0   0   6   0  19 100 98 95 94 93 92 90 89 88 87 86 72 71 67 66 65 64 63 56 
   6   0   0   0   0   0   0   0   0   0   0   0   0   0   0   0   0   0   0   0   0   7   0   0   7   7   0   8   0   0   0  15 101 97 96 95 92 91 90 89 88 87 86 73 64 56 43 
   7   0   0   0   0   0   0   0   4   0   0   0   0   0   0   0   0   0   0   0   6   0   0   0   0   0   0   0   0   7   0  10 97 92 91 90 76 72 71 67 50 37 
   1   0   0   0   0   0   5   0   0   3   0   0   0   0   0   0   0   0   0   0   5   0   0   6   0   0   0   0   4   3   0  14 99 98 97 95 94 90 89 83 71 64 63 61 56 54 
   3   0   7   0   0   0   0   0   0   0   0   0   0   0   0   0   0   0   0   0   0   7   0   0   0   0   0   0   0   0   0   9 94 92 90 87 86 83 81 66 42 
   9   0   0   0   8   0   0   0   0   0   0   0   8   0   0   0   0   0   0   3   0   0   0   0  10   0   0   0   0   0   0  10 99 97 95 93 85 71 70 68 62 50 
   1   0   0   5   0   0  10   8   0   0   0   0   0   6   0   0   0   0   0   0   0   0   0   0   0   0   0   0   0   0   0  14 93 92 91 88 87 86 85 84 83 75 71 66 62 61 
   9   0   0   0   0   0   0   9   0   0   0   0   0   0   0   0   0   0   0   0   7   0   0   0   0   0   0   0   0   0   0   7 98 91 87 72 61 60 47 
   3   0   0   0   0   0   0   0   0   0   0   0   0   0   0   0   0   0   0   0   0   0   0   7   0   0   0   0   0   0   0   9 93 87 84 72 68 65 64 57 55 
   1   0   0   0   0   0   6   0   0   0   0   0   3   0   0   0   0   0   0   0   0   0   0   0   0   9   0   0   0   0   0   8 96 92 91 89 87 71 60 50 
   5   0   0   0   0   0   0   0   0   0   0   0   8   0   6   0   0   0   0   0   9   0   0   0   0   0   0   6   8   0   0   8 99 92 88 81 71 66 61 47 
   4   0   0   6   7   0   8   0   0   0   0  10   0   0   0   0   0   0   0   0   7   0   0   0   0   0   0   0   0   0   0  11 99 97 96 92 87 86 79 71 67 57 56 
   3   0   0   0   0   0   0   0   0   0   0   0   0   0   0   0   5   0   0   0   0   0   0   0   0   0   0   0   0   0   0  11 100 93 92 91 88 87 82 78 71 61 57 
   2   0   0   0   0   0   0   0   0   0   0   0   0   0   0   0   0   0   0   0   0   0   0   0   0   0   6   6   0   0   0  10 95 86 84 83 82 80 77 73 65 62 
   3   0   0   0   0   0   0   0   0   0   0   6   0   0   5   0   6   0   0   0   0   0   3   8   0   0   0   0   0   0   0  10 101 98 95 93 88 84 81 79 63 57 
   1   0   0   0   0   0   0   0   0   0   0   0   0   0   0   0   0   0   8   0   0   0   0   0   7  10   0   0   0   0   0   9 92 87 86 84 81 79 66 64 57 
   8   0   0   5   0   0   0   0   0   5   0   0   0   9   0   0   7   0   0   0   0   6   0   3   0   0   0   0   0   5   0   7 98 95 91 89 72 63 54 
   2   0   5   0   0   0   0   0   0   0   8   0   0   0   0   0   0   6   0  10   0   0   0   0   0   0   0  10   0   6   6  10 88 87 86 85 83 82 80 79 71 56 
   6  10   0   0   0   9   6   0   0   0   0   0   0   0   6   7   0   4   0   0   0   0   8   0   0   0   0   0   2   0   0   9 97 91 89 85 84 82 71 63 61 
   4   0   0   0   0   0   0   0   0   0   0   0   6   0   0   0   0   0   0   0   0   0   0   0   0   0   0   0   8   0   6   7 84 83 82 80 65 63 62 
   2   4   0   0   0   5   0   0   0   0   0   0   0   0   0   0   0   0   0   0   0   0   0   0   0   0   0   0   0   0   0   7 94 91 82 81 74 61 56 
   1   4   0   0   0   0   0   0   0   0   0   7   0   0   0   0   0   0   0   6   0   0   0   0   7   0   0   0   0   7   0   8 101 91 86 84 83 71 66 63 
   7   0   0   0   0   0   0   0   0   0   0   0   0   0   0   0   0   0   0   0   0   0   0   0   0   8   0   0   0   0   0   7 95 92 90 83 80 72 56 
  10   0   0   0   0   0   0   0   0   0   0   0   0   0   0   0   0   0   0   0   0   0   0   0   0   0   0   0   0   0   0   8 96 94 89 86 85 82 78 64 
  10   0   0   0   0   0   0   0   0   0   0   0   0   0   0   0   0   6   0   0   3   0   0   0   0   0   0   0   0   0   0   8 96 94 89 86 83 82 79 63 
   2   0   0   0   0   0   0   0   0   0   0   0   0   0   0   0   0   0   0   9   0   0   0   0   0   0   0   0   0   0   0   9 100 95 91 89 82 80 79 78 77 
   4   0   0   0   4   6   0   0   0   0   0   0   0   8   4   0   0   0   0   0   0   0   6   0   0   6   0   3   0   0   0   4 83 82 61 56 
   7   0   0   0   0   0   0   0   4   0   0   0   0   5   0   0   0   0   0   0   0   0   0  10   0   0   0   0   0   0   0   8 94 88 86 85 81 79 78 77 
   3   0   0   9   8   0   0   0   0   0   0   7   0   0   0   0   0   0   0   0   0   0   0   0   0   9   0   0   0   0   0   7 86 84 83 81 80 78 77 
   1   0   0   5   0   0   0   0   0   0   0   0   0   7   0   0   0   0   0   0   6   5   0   0   0   0   0   0   0   0   0   6 92 85 81 80 79 71 
   5   0   0   0   0   0   0   0   0   0   0   0   0   0   0   0   0   0   0   4   0   3   0   0   0   0   0   0   6   0   0   5 88 85 82 78 62 
   3   0   0   0   0   0   0   0   0   0   0   0   0   0   3   0   0   0   7   0   0   0   0   0   0   0   0   0   0   0   0   4 85 81 78 71 
  10   0   0   0   5   0   0   0   0   7   0   0   0   5   0   0   0   0   0   0   0   0   6   7   0   0   6   0   0   0   0   3 84 78 77 
   4   0   2   7   5   0   0   5   0   0   0   0   0   0   0   0   0   0   0   0   0   0   0   0   0   0   0   0   0   5   0   3 90 83 80 
   1   0   0  10   0   7   6   0   0   0   0   0   0   0   0   0   0   0   8   0   0   0   6   0   0   0   0   0   0   0   0   3 83 82 81 
   4   0   0   0   0   0   0   0   8   0   0   0   0   0   0   0   0   0   0   0   7   0   0   0   0   0   7   0   0   0   0   3 87 78 77 
   6   0   0   0   6   0   0   0   0   0   0   0   0   0   0   0   0   0   3   0   0   0   0   0   0   0   0   0   0   0   0   1 62 
   4  10   7   0   0   0   0   0   0   0   8   0   0   0   0   0   0   7   0   0   0   0   0   0   0   3   0   0   0   0   0   2 80 79 
   3   0   7   0   0  10   0   0   5   0   0   0   4   0   0   0   0   0   0   0   0   7   0   0   0   0   0   0   0   0   0   2 81 79 
   8   0   0   9   7   0   0   0   0   0   0   0   0   0   0   0   0   0   0   0   0   0   0   0   0   2   0   0   0   0   0   2 78 77 
   8   0   0   0   0   0   0   0   9   9   8   0   0   0   0   0   0   0   0   0   0   0   0   0   0   0   0   0   0   0   0   2 80 77 
   3   0   6   0   9   0   5   0   0   0   0   0   0   0   0   0   0   6   5   0   0   0   0   0   0   5   0   0   0   0   0   2 85 78 
   1   0   0   0   0   4   0   0   0   0   0   6   0   0   6   0   0   0   0   0   7   0   0   6   0   0   0   0   0   0   0   2 82 78 
   4   0   0   0   8   0   0   0  10   0   6   0   0   0   0   0   0   0   0   3   6   0   0   0   0   0   0   0   0   0   0   2 83 81 
   1   0   0   0   0   0   0   0   0   0   0   0   0   0   0   0   0   0   0   0   0   0   0   7   0   0   0   0   6   0   0   2 86 77 
   3   5   0   0   0   0   0   0   0   0   0  10   0   0   0   0   0   0   0   0   0   0   0   0   7   0   0   0   0   8   0   2 85 81 
   6   0   0   0   0   0   0   0   0   0   0   0   0   5   0   7   0   0   0   0   0   0   0   0   0   0   0   0   0   0   0   2 84 82 
   9   0   0   0   0   0   0   0   0   0   0   0   0   0   0   0   0   0   0   0   0   0   0   0   0   0   0   0   0   0   0   1 77 
   4   0   0   0   0   0   0   0   0   5   0   0   7  10   0   0   0   0   0   0   0   0   0   0   6   7   0   6   0   0   6   1 79 
   3   0   7   0   5   7   0   0   5   0   0   0   0   0   6   0   7   0   0   0   0   0   0   0   0   0   0   0   0   0   0   1 93 
   4   0   0   0   0   0   0   0   0   0   0   0   0   0   0   0   0   4   0   0   4   0   0   0   0   0   0   0   0   0   0   1 79 
   3   0   0   3   4   0   5   0   0   8   0   6   0   0   0   0   0   0   0   0   0   0  10   0   0   0   5   7   0   5   0   1 80 
   3   0   0   0   0   0   0   0   0   0   0   0   0   7   0   0   0   0   0   0   6   0   0   0   0   9   0   0   9   0   0   1 88 
   1   0   0   0   0   5   0   0   0   0   0   0   0   0   0   0   0   7   0   0   0   0   0   0   0   3   0   0   0   0   0   1 102
   5   0   0   0   0   7   0   4   0   0   7   0   0   0   0   0   0   5   0   0   0   0   0   5   0   0   0   0   9   0   0   1 102
   7   0   0   0   0   3   0   0   0   0   0   0   0   0   0   0   0   0   0   0   0   0   0   0   0   0   0   0   0   0   9   1 102
   7   0   0   0   0   0   0   0   0   0   0   0   0   0   0   0   0   0   0   0   0   0   0   0   0   0   9   0   5   0   0   1 102
   1   0   0   0   0   5   7   0   3   0   0   7   0   0   0   0   0   0   0   0   0   8   0   8   4   0   5   0   0   0   0   1 102
   1   0   7   0   0   0   0   0   0   0   0   3   0   0   0   5   0   0   0   0   0   0   0   0   0   0  10   0   0   0   9   1 102
  10   0   0   0   0   0   0   0   0   8   2  10   0   6   7   0   7   0   6   0   0   0   0   0   0   0   0   0   6   0   0   1 102
   9   0   0   0   0   0   0   0   0   0   0   0   0   0   0   0   6   0   0   7   0   0   4   6   0   0   0   0   0  10   0   1 102
   1   9   4   6   0   0   0   0   0   0   0   0   0   0   0   0   0   0   0   5   0   4   0   0   0   0   0   0   0   0   0   1 102
   7   0   0   4   0   0   0   0   0   0   0   0   0   0   0   0   0   9   0   0   0   9   0   0   0   0   0   0   0   0   0   1 102
   1   6   8   0   0   0   0   0   6   5   0   0   0   0   0   0   0   0   0   0   0   0   0   0   0   0   0   7   0   0   0   1 102
   3   0   4   0   8   0   0   0   0   0   0   0   0   0   0   0   0   0   0   0   0   0   0   4   7   2   0   0   5   0   0   1 102
   3   0   0   0   0   0   0   6   0   0   0   0   8   0   0   0   9   0   0   0  10   0   8   0   0   5   0   0   0   0   0   1 102
   3   0   0   0   4   0   0   0   0   0   0   0   0   0  10   8   0   0   0   0   0   5   0   0   0   0   0   0   0   0   0   1 102
   8   0   0   0   0   5   0   0   0   0   9   0   8   0   0   0   0   0   0   0   0   0   0   0   0   0   7   0   0   7   0   1 102
   6   0   0   0   9   0   0   0   0  10   0   6   0   0   0   8   0   8   0   0   0   0   0   2   0   0   0   0   0   0   0   1 102
   2   0   0   0   0   0   4   0   0   7   5   0   0   0   0   0   0   0   0   0   0   0   0   0   0   0   0   0   0   0   0   1 102
   1   0   0   0   0   0   0   0   0   0   4   0   0   0   0   0   0   0   0   0   0   0   0   0   0   0   0   0   0   0   0   1 102
   8   0   0   0   0   0   0   0   0   0   5   0   0   0   0   0   0   0   0   0   0   0   9   0   0   0   0   0   0   0   0   1 102
   3   0   0   0   0   0   0   0   0   5   0   3   5   0   0   0   0   0   0   0   5   0   0   0   0   0   0   0   0   0   0   1 102
   4   0   0   0   8   0   0   0   9   0   0   0   0   0  10   0   0   0  10   0   0   0   0   0   0   0   0   0   0   0   0   1 102
   9   0  10   0   0   0   0   0   0   0   0   0   7   0   0   0   0   0   0   0   0   5   0   0   5   0   0   0   0   0   0   1 102
   7   0   0   0   2   5   0   0   0   5   0   0   0   0   0   0   0   6   0   0   0   0   0   0   0   7   0   0   0   0   0   1 102
   2   0   0   0   0   0   0   0   0   0   0   0   0   0   0   0   0   0   0   0   0   7   5   0   0   0   0   0   0   0   0   1 102
   4   0   0   0   0   0   0   7   0   0   0   5   0   0   0   0   3   0   0   0   0   0   0   0   0   9   0   0   0   0   0   1 102
   0   0   0   0   0   0   0   0   0   0   0   0   0   0   0   0   0   0   0   0   0   0   0   0   0   0   0   0   0   0   0   0 
